set VV := 0 1 2 3 4 5 6 7 8 9 10 11 12 13 ;
set VS := 0 1 2 3 4 5 6 7 8 9 10 11 12 13 14 15 16 17 18 19 20 21 22 23 24 25 26 27 28 29 30 31 ;
param cv := 
0 24
1 23
2 16
3 21
4 25
5 22
6 12
7 25
8 13
9 24
10 15
11 25
12 19
13 14
;
param cs := 
0 31
1 40
2 33
3 32
4 37
5 27
6 20
7 26
8 29
9 22
10 33
11 20
12 38
13 32
14 21
15 20
16 32
17 25
18 27
19 25
20 34
21 23
22 29
23 37
24 28
25 39
26 22
27 21
28 32
29 35
30 38
31 24
;
param bv:	 0 1 2 3 4 5 6 7 8 9 10 11 12 13 := 
		0 0 24 0 0 0 0 12 0 0 0 0 25 15 0 
		1 0 0 19 0 0 0 0 0 0 0 0 0 0 0 
		2 0 0 0 0 0 0 0 0 0 0 0 0 0 0 
		3 0 0 0 0 0 0 0 0 18 0 0 12 0 0 
		4 0 0 0 0 0 22 0 0 0 0 0 0 0 0 
		5 0 0 0 0 0 0 0 0 0 0 14 0 0 0 
		6 0 0 0 0 0 0 0 11 0 0 19 25 0 0 
		7 0 0 0 0 0 0 0 0 0 0 0 0 0 0 
		8 0 0 0 0 0 0 0 0 0 19 0 0 0 0 
		9 0 0 0 0 0 0 0 0 0 0 0 0 0 0 
		10 0 0 0 0 0 0 0 0 0 0 0 0 0 0 
		11 0 0 0 0 0 0 0 0 0 0 0 0 0 0 
		12 0 0 0 0 0 0 0 0 0 0 0 0 0 20 
		13 0 0 0 0 0 0 0 0 0 0 0 0 0 0 
;
param bs:	 0 1 2 3 4 5 6 7 8 9 10 11 12 13 14 15 16 17 18 19 20 21 22 23 24 25 26 27 28 29 30 31 := 
		0 0 0 0 0 0 0 0 23 0 0 0 0 0 0 0 0 0 0 0 33 0 0 0 0 0 0 0 0 0 0 0 0 
		1 0 0 0 0 0 36 0 0 0 0 0 20 0 0 0 0 0 0 0 0 0 0 35 27 0 0 0 0 0 35 0 0 
		2 0 0 0 0 0 0 0 0 22 0 0 0 0 0 0 0 31 0 40 0 0 0 0 0 0 0 0 0 0 31 20 0 
		3 0 0 0 0 0 0 0 0 0 30 0 0 0 0 0 0 0 0 0 0 0 0 0 0 0 0 0 0 0 0 0 0 
		4 0 0 0 0 0 0 0 35 0 0 0 29 0 0 0 0 34 0 0 0 0 33 0 0 0 0 23 0 0 38 0 0 
		5 0 36 0 0 0 0 0 0 0 0 0 0 0 0 0 0 24 0 0 0 0 0 0 0 23 0 0 0 0 0 0 0 
		6 0 0 0 0 0 0 0 0 30 0 0 0 0 0 0 0 35 0 0 0 0 0 0 0 0 0 0 0 0 28 0 0 
		7 23 0 0 0 35 0 0 0 0 0 0 40 0 0 0 0 0 0 0 0 0 0 0 0 0 0 0 0 31 38 0 0 
		8 0 0 22 0 0 0 30 0 0 0 0 0 0 0 0 0 29 0 0 0 39 27 0 0 0 40 0 0 0 0 0 0 
		9 0 0 0 30 0 0 0 0 0 0 0 0 0 0 0 0 0 0 32 0 0 0 0 40 0 0 0 40 0 0 0 0 
		10 0 0 0 0 0 0 0 0 0 0 0 0 0 0 0 0 0 0 0 0 0 0 0 0 23 0 0 0 0 0 0 0 
		11 0 20 0 0 29 0 0 40 0 0 0 0 0 0 0 0 0 0 20 0 0 0 0 0 0 0 0 0 0 0 0 0 
		12 0 0 0 0 0 0 0 0 0 0 0 0 0 0 0 0 0 0 0 0 0 0 0 0 0 27 0 0 0 0 0 0 
		13 0 0 0 0 0 0 0 0 0 0 0 0 0 0 0 0 0 0 34 28 0 0 0 0 0 0 0 0 0 0 0 0 
		14 0 0 0 0 0 0 0 0 0 0 0 0 0 0 0 0 0 0 0 38 0 0 0 0 0 0 25 0 23 0 0 0 
		15 0 0 0 0 0 0 0 0 0 0 0 0 0 0 0 0 0 0 37 0 0 0 0 0 0 0 39 0 0 0 0 0 
		16 0 0 31 0 34 24 35 0 29 0 0 0 0 0 0 0 0 0 0 0 0 0 0 0 0 30 0 0 28 0 0 0 
		17 0 0 0 0 0 0 0 0 0 0 0 0 0 0 0 0 0 0 0 0 0 0 0 0 0 0 0 0 0 30 0 0 
		18 0 0 40 0 0 0 0 0 0 32 0 20 0 34 0 37 0 0 0 0 0 27 0 0 0 0 0 0 22 0 0 0 
		19 33 0 0 0 0 0 0 0 0 0 0 0 0 28 38 0 0 0 0 0 0 0 0 0 0 0 0 0 0 0 0 0 
		20 0 0 0 0 0 0 0 0 39 0 0 0 0 0 0 0 0 0 0 0 0 0 0 40 0 0 35 0 0 0 0 0 
		21 0 0 0 0 33 0 0 0 27 0 0 0 0 0 0 0 0 0 27 0 0 0 0 0 0 0 0 0 0 0 0 0 
		22 0 35 0 0 0 0 0 0 0 0 0 0 0 0 0 0 0 0 0 0 0 0 0 0 0 0 0 0 0 0 0 0 
		23 0 27 0 0 0 0 0 0 0 40 0 0 0 0 0 0 0 0 0 0 40 0 0 0 0 0 0 0 0 0 0 0 
		24 0 0 0 0 0 23 0 0 0 0 23 0 0 0 0 0 0 0 0 0 0 0 0 0 0 0 0 0 0 0 0 34 
		25 0 0 0 0 0 0 0 0 40 0 0 0 27 0 0 0 30 0 0 0 0 0 0 0 0 0 0 0 0 0 0 0 
		26 0 0 0 0 23 0 0 0 0 0 0 0 0 0 25 39 0 0 0 0 35 0 0 0 0 0 0 0 0 0 0 0 
		27 0 0 0 0 0 0 0 0 0 40 0 0 0 0 0 0 0 0 0 0 0 0 0 0 0 0 0 0 0 0 37 0 
		28 0 0 0 0 0 0 0 31 0 0 0 0 0 0 23 0 28 0 22 0 0 0 0 0 0 0 0 0 0 0 0 0 
		29 0 35 31 0 38 0 28 38 0 0 0 0 0 0 0 0 0 30 0 0 0 0 0 0 0 0 0 0 0 0 0 0 
		30 0 0 20 0 0 0 0 0 0 0 0 0 0 0 0 0 0 0 0 0 0 0 0 0 0 0 0 37 0 0 0 0 
		31 0 0 0 0 0 0 0 0 0 0 0 0 0 0 0 0 0 0 0 0 0 0 0 0 34 0 0 0 0 0 0 0 
;
